c *********************************
c * Circuit generated by BenCGen
c *
c * RippleCarryAdderSubtractor_119_119_119_OutSunT
c *
c * Ports with 1 gate(s): 2
c * Ports with 2 gate(s): 716
c * Total gates: 718
c *********************************
p cnf 956 2510
1 360 0
-1 -360 0
1 -359 0
360 -359 0
-1 -360 359 0
359 361 0
-359 -361 0
120 359 -362 0
-120 359 362 0
120 -359 362 0
-120 -359 -362 0
121 359 -363 0
-121 359 363 0
121 -359 363 0
-121 -359 -363 0
122 359 -364 0
-122 359 364 0
122 -359 364 0
-122 -359 -364 0
123 359 -365 0
-123 359 365 0
123 -359 365 0
-123 -359 -365 0
124 359 -366 0
-124 359 366 0
124 -359 366 0
-124 -359 -366 0
125 359 -367 0
-125 359 367 0
125 -359 367 0
-125 -359 -367 0
126 359 -368 0
-126 359 368 0
126 -359 368 0
-126 -359 -368 0
127 359 -369 0
-127 359 369 0
127 -359 369 0
-127 -359 -369 0
128 359 -370 0
-128 359 370 0
128 -359 370 0
-128 -359 -370 0
129 359 -371 0
-129 359 371 0
129 -359 371 0
-129 -359 -371 0
130 359 -372 0
-130 359 372 0
130 -359 372 0
-130 -359 -372 0
131 359 -373 0
-131 359 373 0
131 -359 373 0
-131 -359 -373 0
132 359 -374 0
-132 359 374 0
132 -359 374 0
-132 -359 -374 0
133 359 -375 0
-133 359 375 0
133 -359 375 0
-133 -359 -375 0
134 359 -376 0
-134 359 376 0
134 -359 376 0
-134 -359 -376 0
135 359 -377 0
-135 359 377 0
135 -359 377 0
-135 -359 -377 0
136 359 -378 0
-136 359 378 0
136 -359 378 0
-136 -359 -378 0
137 359 -379 0
-137 359 379 0
137 -359 379 0
-137 -359 -379 0
138 359 -380 0
-138 359 380 0
138 -359 380 0
-138 -359 -380 0
139 359 -381 0
-139 359 381 0
139 -359 381 0
-139 -359 -381 0
140 359 -382 0
-140 359 382 0
140 -359 382 0
-140 -359 -382 0
141 359 -383 0
-141 359 383 0
141 -359 383 0
-141 -359 -383 0
142 359 -384 0
-142 359 384 0
142 -359 384 0
-142 -359 -384 0
143 359 -385 0
-143 359 385 0
143 -359 385 0
-143 -359 -385 0
144 359 -386 0
-144 359 386 0
144 -359 386 0
-144 -359 -386 0
145 359 -387 0
-145 359 387 0
145 -359 387 0
-145 -359 -387 0
146 359 -388 0
-146 359 388 0
146 -359 388 0
-146 -359 -388 0
147 359 -389 0
-147 359 389 0
147 -359 389 0
-147 -359 -389 0
148 359 -390 0
-148 359 390 0
148 -359 390 0
-148 -359 -390 0
149 359 -391 0
-149 359 391 0
149 -359 391 0
-149 -359 -391 0
150 359 -392 0
-150 359 392 0
150 -359 392 0
-150 -359 -392 0
151 359 -393 0
-151 359 393 0
151 -359 393 0
-151 -359 -393 0
152 359 -394 0
-152 359 394 0
152 -359 394 0
-152 -359 -394 0
153 359 -395 0
-153 359 395 0
153 -359 395 0
-153 -359 -395 0
154 359 -396 0
-154 359 396 0
154 -359 396 0
-154 -359 -396 0
155 359 -397 0
-155 359 397 0
155 -359 397 0
-155 -359 -397 0
156 359 -398 0
-156 359 398 0
156 -359 398 0
-156 -359 -398 0
157 359 -399 0
-157 359 399 0
157 -359 399 0
-157 -359 -399 0
158 359 -400 0
-158 359 400 0
158 -359 400 0
-158 -359 -400 0
159 359 -401 0
-159 359 401 0
159 -359 401 0
-159 -359 -401 0
160 359 -402 0
-160 359 402 0
160 -359 402 0
-160 -359 -402 0
161 359 -403 0
-161 359 403 0
161 -359 403 0
-161 -359 -403 0
162 359 -404 0
-162 359 404 0
162 -359 404 0
-162 -359 -404 0
163 359 -405 0
-163 359 405 0
163 -359 405 0
-163 -359 -405 0
164 359 -406 0
-164 359 406 0
164 -359 406 0
-164 -359 -406 0
165 359 -407 0
-165 359 407 0
165 -359 407 0
-165 -359 -407 0
166 359 -408 0
-166 359 408 0
166 -359 408 0
-166 -359 -408 0
167 359 -409 0
-167 359 409 0
167 -359 409 0
-167 -359 -409 0
168 359 -410 0
-168 359 410 0
168 -359 410 0
-168 -359 -410 0
169 359 -411 0
-169 359 411 0
169 -359 411 0
-169 -359 -411 0
170 359 -412 0
-170 359 412 0
170 -359 412 0
-170 -359 -412 0
171 359 -413 0
-171 359 413 0
171 -359 413 0
-171 -359 -413 0
172 359 -414 0
-172 359 414 0
172 -359 414 0
-172 -359 -414 0
173 359 -415 0
-173 359 415 0
173 -359 415 0
-173 -359 -415 0
174 359 -416 0
-174 359 416 0
174 -359 416 0
-174 -359 -416 0
175 359 -417 0
-175 359 417 0
175 -359 417 0
-175 -359 -417 0
176 359 -418 0
-176 359 418 0
176 -359 418 0
-176 -359 -418 0
177 359 -419 0
-177 359 419 0
177 -359 419 0
-177 -359 -419 0
178 359 -420 0
-178 359 420 0
178 -359 420 0
-178 -359 -420 0
179 359 -421 0
-179 359 421 0
179 -359 421 0
-179 -359 -421 0
180 359 -422 0
-180 359 422 0
180 -359 422 0
-180 -359 -422 0
181 359 -423 0
-181 359 423 0
181 -359 423 0
-181 -359 -423 0
182 359 -424 0
-182 359 424 0
182 -359 424 0
-182 -359 -424 0
183 359 -425 0
-183 359 425 0
183 -359 425 0
-183 -359 -425 0
184 359 -426 0
-184 359 426 0
184 -359 426 0
-184 -359 -426 0
185 359 -427 0
-185 359 427 0
185 -359 427 0
-185 -359 -427 0
186 359 -428 0
-186 359 428 0
186 -359 428 0
-186 -359 -428 0
187 359 -429 0
-187 359 429 0
187 -359 429 0
-187 -359 -429 0
188 359 -430 0
-188 359 430 0
188 -359 430 0
-188 -359 -430 0
189 359 -431 0
-189 359 431 0
189 -359 431 0
-189 -359 -431 0
190 359 -432 0
-190 359 432 0
190 -359 432 0
-190 -359 -432 0
191 359 -433 0
-191 359 433 0
191 -359 433 0
-191 -359 -433 0
192 359 -434 0
-192 359 434 0
192 -359 434 0
-192 -359 -434 0
193 359 -435 0
-193 359 435 0
193 -359 435 0
-193 -359 -435 0
194 359 -436 0
-194 359 436 0
194 -359 436 0
-194 -359 -436 0
195 359 -437 0
-195 359 437 0
195 -359 437 0
-195 -359 -437 0
196 359 -438 0
-196 359 438 0
196 -359 438 0
-196 -359 -438 0
197 359 -439 0
-197 359 439 0
197 -359 439 0
-197 -359 -439 0
198 359 -440 0
-198 359 440 0
198 -359 440 0
-198 -359 -440 0
199 359 -441 0
-199 359 441 0
199 -359 441 0
-199 -359 -441 0
200 359 -442 0
-200 359 442 0
200 -359 442 0
-200 -359 -442 0
201 359 -443 0
-201 359 443 0
201 -359 443 0
-201 -359 -443 0
202 359 -444 0
-202 359 444 0
202 -359 444 0
-202 -359 -444 0
203 359 -445 0
-203 359 445 0
203 -359 445 0
-203 -359 -445 0
204 359 -446 0
-204 359 446 0
204 -359 446 0
-204 -359 -446 0
205 359 -447 0
-205 359 447 0
205 -359 447 0
-205 -359 -447 0
206 359 -448 0
-206 359 448 0
206 -359 448 0
-206 -359 -448 0
207 359 -449 0
-207 359 449 0
207 -359 449 0
-207 -359 -449 0
208 359 -450 0
-208 359 450 0
208 -359 450 0
-208 -359 -450 0
209 359 -451 0
-209 359 451 0
209 -359 451 0
-209 -359 -451 0
210 359 -452 0
-210 359 452 0
210 -359 452 0
-210 -359 -452 0
211 359 -453 0
-211 359 453 0
211 -359 453 0
-211 -359 -453 0
212 359 -454 0
-212 359 454 0
212 -359 454 0
-212 -359 -454 0
213 359 -455 0
-213 359 455 0
213 -359 455 0
-213 -359 -455 0
214 359 -456 0
-214 359 456 0
214 -359 456 0
-214 -359 -456 0
215 359 -457 0
-215 359 457 0
215 -359 457 0
-215 -359 -457 0
216 359 -458 0
-216 359 458 0
216 -359 458 0
-216 -359 -458 0
217 359 -459 0
-217 359 459 0
217 -359 459 0
-217 -359 -459 0
218 359 -460 0
-218 359 460 0
218 -359 460 0
-218 -359 -460 0
219 359 -461 0
-219 359 461 0
219 -359 461 0
-219 -359 -461 0
220 359 -462 0
-220 359 462 0
220 -359 462 0
-220 -359 -462 0
221 359 -463 0
-221 359 463 0
221 -359 463 0
-221 -359 -463 0
222 359 -464 0
-222 359 464 0
222 -359 464 0
-222 -359 -464 0
223 359 -465 0
-223 359 465 0
223 -359 465 0
-223 -359 -465 0
224 359 -466 0
-224 359 466 0
224 -359 466 0
-224 -359 -466 0
225 359 -467 0
-225 359 467 0
225 -359 467 0
-225 -359 -467 0
226 359 -468 0
-226 359 468 0
226 -359 468 0
-226 -359 -468 0
227 359 -469 0
-227 359 469 0
227 -359 469 0
-227 -359 -469 0
228 359 -470 0
-228 359 470 0
228 -359 470 0
-228 -359 -470 0
229 359 -471 0
-229 359 471 0
229 -359 471 0
-229 -359 -471 0
230 359 -472 0
-230 359 472 0
230 -359 472 0
-230 -359 -472 0
231 359 -473 0
-231 359 473 0
231 -359 473 0
-231 -359 -473 0
232 359 -474 0
-232 359 474 0
232 -359 474 0
-232 -359 -474 0
233 359 -475 0
-233 359 475 0
233 -359 475 0
-233 -359 -475 0
234 359 -476 0
-234 359 476 0
234 -359 476 0
-234 -359 -476 0
235 359 -477 0
-235 359 477 0
235 -359 477 0
-235 -359 -477 0
236 359 -478 0
-236 359 478 0
236 -359 478 0
-236 -359 -478 0
237 359 -479 0
-237 359 479 0
237 -359 479 0
-237 -359 -479 0
238 359 -480 0
-238 359 480 0
238 -359 480 0
-238 -359 -480 0
1 362 -482 0
-1 362 482 0
1 -362 482 0
-1 -362 -482 0
482 359 -239 0
-482 359 239 0
482 -359 239 0
-482 -359 -239 0
359 -483 0
482 -483 0
-359 -482 483 0
362 -484 0
1 -484 0
-362 -1 484 0
-483 481 0
-484 481 0
483 484 -481 0
2 363 -486 0
-2 363 486 0
2 -363 486 0
-2 -363 -486 0
486 481 -240 0
-486 481 240 0
486 -481 240 0
-486 -481 -240 0
481 -487 0
486 -487 0
-481 -486 487 0
363 -488 0
2 -488 0
-363 -2 488 0
-487 485 0
-488 485 0
487 488 -485 0
3 364 -490 0
-3 364 490 0
3 -364 490 0
-3 -364 -490 0
490 485 -241 0
-490 485 241 0
490 -485 241 0
-490 -485 -241 0
485 -491 0
490 -491 0
-485 -490 491 0
364 -492 0
3 -492 0
-364 -3 492 0
-491 489 0
-492 489 0
491 492 -489 0
4 365 -494 0
-4 365 494 0
4 -365 494 0
-4 -365 -494 0
494 489 -242 0
-494 489 242 0
494 -489 242 0
-494 -489 -242 0
489 -495 0
494 -495 0
-489 -494 495 0
365 -496 0
4 -496 0
-365 -4 496 0
-495 493 0
-496 493 0
495 496 -493 0
5 366 -498 0
-5 366 498 0
5 -366 498 0
-5 -366 -498 0
498 493 -243 0
-498 493 243 0
498 -493 243 0
-498 -493 -243 0
493 -499 0
498 -499 0
-493 -498 499 0
366 -500 0
5 -500 0
-366 -5 500 0
-499 497 0
-500 497 0
499 500 -497 0
6 367 -502 0
-6 367 502 0
6 -367 502 0
-6 -367 -502 0
502 497 -244 0
-502 497 244 0
502 -497 244 0
-502 -497 -244 0
497 -503 0
502 -503 0
-497 -502 503 0
367 -504 0
6 -504 0
-367 -6 504 0
-503 501 0
-504 501 0
503 504 -501 0
7 368 -506 0
-7 368 506 0
7 -368 506 0
-7 -368 -506 0
506 501 -245 0
-506 501 245 0
506 -501 245 0
-506 -501 -245 0
501 -507 0
506 -507 0
-501 -506 507 0
368 -508 0
7 -508 0
-368 -7 508 0
-507 505 0
-508 505 0
507 508 -505 0
8 369 -510 0
-8 369 510 0
8 -369 510 0
-8 -369 -510 0
510 505 -246 0
-510 505 246 0
510 -505 246 0
-510 -505 -246 0
505 -511 0
510 -511 0
-505 -510 511 0
369 -512 0
8 -512 0
-369 -8 512 0
-511 509 0
-512 509 0
511 512 -509 0
9 370 -514 0
-9 370 514 0
9 -370 514 0
-9 -370 -514 0
514 509 -247 0
-514 509 247 0
514 -509 247 0
-514 -509 -247 0
509 -515 0
514 -515 0
-509 -514 515 0
370 -516 0
9 -516 0
-370 -9 516 0
-515 513 0
-516 513 0
515 516 -513 0
10 371 -518 0
-10 371 518 0
10 -371 518 0
-10 -371 -518 0
518 513 -248 0
-518 513 248 0
518 -513 248 0
-518 -513 -248 0
513 -519 0
518 -519 0
-513 -518 519 0
371 -520 0
10 -520 0
-371 -10 520 0
-519 517 0
-520 517 0
519 520 -517 0
11 372 -522 0
-11 372 522 0
11 -372 522 0
-11 -372 -522 0
522 517 -249 0
-522 517 249 0
522 -517 249 0
-522 -517 -249 0
517 -523 0
522 -523 0
-517 -522 523 0
372 -524 0
11 -524 0
-372 -11 524 0
-523 521 0
-524 521 0
523 524 -521 0
12 373 -526 0
-12 373 526 0
12 -373 526 0
-12 -373 -526 0
526 521 -250 0
-526 521 250 0
526 -521 250 0
-526 -521 -250 0
521 -527 0
526 -527 0
-521 -526 527 0
373 -528 0
12 -528 0
-373 -12 528 0
-527 525 0
-528 525 0
527 528 -525 0
13 374 -530 0
-13 374 530 0
13 -374 530 0
-13 -374 -530 0
530 525 -251 0
-530 525 251 0
530 -525 251 0
-530 -525 -251 0
525 -531 0
530 -531 0
-525 -530 531 0
374 -532 0
13 -532 0
-374 -13 532 0
-531 529 0
-532 529 0
531 532 -529 0
14 375 -534 0
-14 375 534 0
14 -375 534 0
-14 -375 -534 0
534 529 -252 0
-534 529 252 0
534 -529 252 0
-534 -529 -252 0
529 -535 0
534 -535 0
-529 -534 535 0
375 -536 0
14 -536 0
-375 -14 536 0
-535 533 0
-536 533 0
535 536 -533 0
15 376 -538 0
-15 376 538 0
15 -376 538 0
-15 -376 -538 0
538 533 -253 0
-538 533 253 0
538 -533 253 0
-538 -533 -253 0
533 -539 0
538 -539 0
-533 -538 539 0
376 -540 0
15 -540 0
-376 -15 540 0
-539 537 0
-540 537 0
539 540 -537 0
16 377 -542 0
-16 377 542 0
16 -377 542 0
-16 -377 -542 0
542 537 -254 0
-542 537 254 0
542 -537 254 0
-542 -537 -254 0
537 -543 0
542 -543 0
-537 -542 543 0
377 -544 0
16 -544 0
-377 -16 544 0
-543 541 0
-544 541 0
543 544 -541 0
17 378 -546 0
-17 378 546 0
17 -378 546 0
-17 -378 -546 0
546 541 -255 0
-546 541 255 0
546 -541 255 0
-546 -541 -255 0
541 -547 0
546 -547 0
-541 -546 547 0
378 -548 0
17 -548 0
-378 -17 548 0
-547 545 0
-548 545 0
547 548 -545 0
18 379 -550 0
-18 379 550 0
18 -379 550 0
-18 -379 -550 0
550 545 -256 0
-550 545 256 0
550 -545 256 0
-550 -545 -256 0
545 -551 0
550 -551 0
-545 -550 551 0
379 -552 0
18 -552 0
-379 -18 552 0
-551 549 0
-552 549 0
551 552 -549 0
19 380 -554 0
-19 380 554 0
19 -380 554 0
-19 -380 -554 0
554 549 -257 0
-554 549 257 0
554 -549 257 0
-554 -549 -257 0
549 -555 0
554 -555 0
-549 -554 555 0
380 -556 0
19 -556 0
-380 -19 556 0
-555 553 0
-556 553 0
555 556 -553 0
20 381 -558 0
-20 381 558 0
20 -381 558 0
-20 -381 -558 0
558 553 -258 0
-558 553 258 0
558 -553 258 0
-558 -553 -258 0
553 -559 0
558 -559 0
-553 -558 559 0
381 -560 0
20 -560 0
-381 -20 560 0
-559 557 0
-560 557 0
559 560 -557 0
21 382 -562 0
-21 382 562 0
21 -382 562 0
-21 -382 -562 0
562 557 -259 0
-562 557 259 0
562 -557 259 0
-562 -557 -259 0
557 -563 0
562 -563 0
-557 -562 563 0
382 -564 0
21 -564 0
-382 -21 564 0
-563 561 0
-564 561 0
563 564 -561 0
22 383 -566 0
-22 383 566 0
22 -383 566 0
-22 -383 -566 0
566 561 -260 0
-566 561 260 0
566 -561 260 0
-566 -561 -260 0
561 -567 0
566 -567 0
-561 -566 567 0
383 -568 0
22 -568 0
-383 -22 568 0
-567 565 0
-568 565 0
567 568 -565 0
23 384 -570 0
-23 384 570 0
23 -384 570 0
-23 -384 -570 0
570 565 -261 0
-570 565 261 0
570 -565 261 0
-570 -565 -261 0
565 -571 0
570 -571 0
-565 -570 571 0
384 -572 0
23 -572 0
-384 -23 572 0
-571 569 0
-572 569 0
571 572 -569 0
24 385 -574 0
-24 385 574 0
24 -385 574 0
-24 -385 -574 0
574 569 -262 0
-574 569 262 0
574 -569 262 0
-574 -569 -262 0
569 -575 0
574 -575 0
-569 -574 575 0
385 -576 0
24 -576 0
-385 -24 576 0
-575 573 0
-576 573 0
575 576 -573 0
25 386 -578 0
-25 386 578 0
25 -386 578 0
-25 -386 -578 0
578 573 -263 0
-578 573 263 0
578 -573 263 0
-578 -573 -263 0
573 -579 0
578 -579 0
-573 -578 579 0
386 -580 0
25 -580 0
-386 -25 580 0
-579 577 0
-580 577 0
579 580 -577 0
26 387 -582 0
-26 387 582 0
26 -387 582 0
-26 -387 -582 0
582 577 -264 0
-582 577 264 0
582 -577 264 0
-582 -577 -264 0
577 -583 0
582 -583 0
-577 -582 583 0
387 -584 0
26 -584 0
-387 -26 584 0
-583 581 0
-584 581 0
583 584 -581 0
27 388 -586 0
-27 388 586 0
27 -388 586 0
-27 -388 -586 0
586 581 -265 0
-586 581 265 0
586 -581 265 0
-586 -581 -265 0
581 -587 0
586 -587 0
-581 -586 587 0
388 -588 0
27 -588 0
-388 -27 588 0
-587 585 0
-588 585 0
587 588 -585 0
28 389 -590 0
-28 389 590 0
28 -389 590 0
-28 -389 -590 0
590 585 -266 0
-590 585 266 0
590 -585 266 0
-590 -585 -266 0
585 -591 0
590 -591 0
-585 -590 591 0
389 -592 0
28 -592 0
-389 -28 592 0
-591 589 0
-592 589 0
591 592 -589 0
29 390 -594 0
-29 390 594 0
29 -390 594 0
-29 -390 -594 0
594 589 -267 0
-594 589 267 0
594 -589 267 0
-594 -589 -267 0
589 -595 0
594 -595 0
-589 -594 595 0
390 -596 0
29 -596 0
-390 -29 596 0
-595 593 0
-596 593 0
595 596 -593 0
30 391 -598 0
-30 391 598 0
30 -391 598 0
-30 -391 -598 0
598 593 -268 0
-598 593 268 0
598 -593 268 0
-598 -593 -268 0
593 -599 0
598 -599 0
-593 -598 599 0
391 -600 0
30 -600 0
-391 -30 600 0
-599 597 0
-600 597 0
599 600 -597 0
31 392 -602 0
-31 392 602 0
31 -392 602 0
-31 -392 -602 0
602 597 -269 0
-602 597 269 0
602 -597 269 0
-602 -597 -269 0
597 -603 0
602 -603 0
-597 -602 603 0
392 -604 0
31 -604 0
-392 -31 604 0
-603 601 0
-604 601 0
603 604 -601 0
32 393 -606 0
-32 393 606 0
32 -393 606 0
-32 -393 -606 0
606 601 -270 0
-606 601 270 0
606 -601 270 0
-606 -601 -270 0
601 -607 0
606 -607 0
-601 -606 607 0
393 -608 0
32 -608 0
-393 -32 608 0
-607 605 0
-608 605 0
607 608 -605 0
33 394 -610 0
-33 394 610 0
33 -394 610 0
-33 -394 -610 0
610 605 -271 0
-610 605 271 0
610 -605 271 0
-610 -605 -271 0
605 -611 0
610 -611 0
-605 -610 611 0
394 -612 0
33 -612 0
-394 -33 612 0
-611 609 0
-612 609 0
611 612 -609 0
34 395 -614 0
-34 395 614 0
34 -395 614 0
-34 -395 -614 0
614 609 -272 0
-614 609 272 0
614 -609 272 0
-614 -609 -272 0
609 -615 0
614 -615 0
-609 -614 615 0
395 -616 0
34 -616 0
-395 -34 616 0
-615 613 0
-616 613 0
615 616 -613 0
35 396 -618 0
-35 396 618 0
35 -396 618 0
-35 -396 -618 0
618 613 -273 0
-618 613 273 0
618 -613 273 0
-618 -613 -273 0
613 -619 0
618 -619 0
-613 -618 619 0
396 -620 0
35 -620 0
-396 -35 620 0
-619 617 0
-620 617 0
619 620 -617 0
36 397 -622 0
-36 397 622 0
36 -397 622 0
-36 -397 -622 0
622 617 -274 0
-622 617 274 0
622 -617 274 0
-622 -617 -274 0
617 -623 0
622 -623 0
-617 -622 623 0
397 -624 0
36 -624 0
-397 -36 624 0
-623 621 0
-624 621 0
623 624 -621 0
37 398 -626 0
-37 398 626 0
37 -398 626 0
-37 -398 -626 0
626 621 -275 0
-626 621 275 0
626 -621 275 0
-626 -621 -275 0
621 -627 0
626 -627 0
-621 -626 627 0
398 -628 0
37 -628 0
-398 -37 628 0
-627 625 0
-628 625 0
627 628 -625 0
38 399 -630 0
-38 399 630 0
38 -399 630 0
-38 -399 -630 0
630 625 -276 0
-630 625 276 0
630 -625 276 0
-630 -625 -276 0
625 -631 0
630 -631 0
-625 -630 631 0
399 -632 0
38 -632 0
-399 -38 632 0
-631 629 0
-632 629 0
631 632 -629 0
39 400 -634 0
-39 400 634 0
39 -400 634 0
-39 -400 -634 0
634 629 -277 0
-634 629 277 0
634 -629 277 0
-634 -629 -277 0
629 -635 0
634 -635 0
-629 -634 635 0
400 -636 0
39 -636 0
-400 -39 636 0
-635 633 0
-636 633 0
635 636 -633 0
40 401 -638 0
-40 401 638 0
40 -401 638 0
-40 -401 -638 0
638 633 -278 0
-638 633 278 0
638 -633 278 0
-638 -633 -278 0
633 -639 0
638 -639 0
-633 -638 639 0
401 -640 0
40 -640 0
-401 -40 640 0
-639 637 0
-640 637 0
639 640 -637 0
41 402 -642 0
-41 402 642 0
41 -402 642 0
-41 -402 -642 0
642 637 -279 0
-642 637 279 0
642 -637 279 0
-642 -637 -279 0
637 -643 0
642 -643 0
-637 -642 643 0
402 -644 0
41 -644 0
-402 -41 644 0
-643 641 0
-644 641 0
643 644 -641 0
42 403 -646 0
-42 403 646 0
42 -403 646 0
-42 -403 -646 0
646 641 -280 0
-646 641 280 0
646 -641 280 0
-646 -641 -280 0
641 -647 0
646 -647 0
-641 -646 647 0
403 -648 0
42 -648 0
-403 -42 648 0
-647 645 0
-648 645 0
647 648 -645 0
43 404 -650 0
-43 404 650 0
43 -404 650 0
-43 -404 -650 0
650 645 -281 0
-650 645 281 0
650 -645 281 0
-650 -645 -281 0
645 -651 0
650 -651 0
-645 -650 651 0
404 -652 0
43 -652 0
-404 -43 652 0
-651 649 0
-652 649 0
651 652 -649 0
44 405 -654 0
-44 405 654 0
44 -405 654 0
-44 -405 -654 0
654 649 -282 0
-654 649 282 0
654 -649 282 0
-654 -649 -282 0
649 -655 0
654 -655 0
-649 -654 655 0
405 -656 0
44 -656 0
-405 -44 656 0
-655 653 0
-656 653 0
655 656 -653 0
45 406 -658 0
-45 406 658 0
45 -406 658 0
-45 -406 -658 0
658 653 -283 0
-658 653 283 0
658 -653 283 0
-658 -653 -283 0
653 -659 0
658 -659 0
-653 -658 659 0
406 -660 0
45 -660 0
-406 -45 660 0
-659 657 0
-660 657 0
659 660 -657 0
46 407 -662 0
-46 407 662 0
46 -407 662 0
-46 -407 -662 0
662 657 -284 0
-662 657 284 0
662 -657 284 0
-662 -657 -284 0
657 -663 0
662 -663 0
-657 -662 663 0
407 -664 0
46 -664 0
-407 -46 664 0
-663 661 0
-664 661 0
663 664 -661 0
47 408 -666 0
-47 408 666 0
47 -408 666 0
-47 -408 -666 0
666 661 -285 0
-666 661 285 0
666 -661 285 0
-666 -661 -285 0
661 -667 0
666 -667 0
-661 -666 667 0
408 -668 0
47 -668 0
-408 -47 668 0
-667 665 0
-668 665 0
667 668 -665 0
48 409 -670 0
-48 409 670 0
48 -409 670 0
-48 -409 -670 0
670 665 -286 0
-670 665 286 0
670 -665 286 0
-670 -665 -286 0
665 -671 0
670 -671 0
-665 -670 671 0
409 -672 0
48 -672 0
-409 -48 672 0
-671 669 0
-672 669 0
671 672 -669 0
49 410 -674 0
-49 410 674 0
49 -410 674 0
-49 -410 -674 0
674 669 -287 0
-674 669 287 0
674 -669 287 0
-674 -669 -287 0
669 -675 0
674 -675 0
-669 -674 675 0
410 -676 0
49 -676 0
-410 -49 676 0
-675 673 0
-676 673 0
675 676 -673 0
50 411 -678 0
-50 411 678 0
50 -411 678 0
-50 -411 -678 0
678 673 -288 0
-678 673 288 0
678 -673 288 0
-678 -673 -288 0
673 -679 0
678 -679 0
-673 -678 679 0
411 -680 0
50 -680 0
-411 -50 680 0
-679 677 0
-680 677 0
679 680 -677 0
51 412 -682 0
-51 412 682 0
51 -412 682 0
-51 -412 -682 0
682 677 -289 0
-682 677 289 0
682 -677 289 0
-682 -677 -289 0
677 -683 0
682 -683 0
-677 -682 683 0
412 -684 0
51 -684 0
-412 -51 684 0
-683 681 0
-684 681 0
683 684 -681 0
52 413 -686 0
-52 413 686 0
52 -413 686 0
-52 -413 -686 0
686 681 -290 0
-686 681 290 0
686 -681 290 0
-686 -681 -290 0
681 -687 0
686 -687 0
-681 -686 687 0
413 -688 0
52 -688 0
-413 -52 688 0
-687 685 0
-688 685 0
687 688 -685 0
53 414 -690 0
-53 414 690 0
53 -414 690 0
-53 -414 -690 0
690 685 -291 0
-690 685 291 0
690 -685 291 0
-690 -685 -291 0
685 -691 0
690 -691 0
-685 -690 691 0
414 -692 0
53 -692 0
-414 -53 692 0
-691 689 0
-692 689 0
691 692 -689 0
54 415 -694 0
-54 415 694 0
54 -415 694 0
-54 -415 -694 0
694 689 -292 0
-694 689 292 0
694 -689 292 0
-694 -689 -292 0
689 -695 0
694 -695 0
-689 -694 695 0
415 -696 0
54 -696 0
-415 -54 696 0
-695 693 0
-696 693 0
695 696 -693 0
55 416 -698 0
-55 416 698 0
55 -416 698 0
-55 -416 -698 0
698 693 -293 0
-698 693 293 0
698 -693 293 0
-698 -693 -293 0
693 -699 0
698 -699 0
-693 -698 699 0
416 -700 0
55 -700 0
-416 -55 700 0
-699 697 0
-700 697 0
699 700 -697 0
56 417 -702 0
-56 417 702 0
56 -417 702 0
-56 -417 -702 0
702 697 -294 0
-702 697 294 0
702 -697 294 0
-702 -697 -294 0
697 -703 0
702 -703 0
-697 -702 703 0
417 -704 0
56 -704 0
-417 -56 704 0
-703 701 0
-704 701 0
703 704 -701 0
57 418 -706 0
-57 418 706 0
57 -418 706 0
-57 -418 -706 0
706 701 -295 0
-706 701 295 0
706 -701 295 0
-706 -701 -295 0
701 -707 0
706 -707 0
-701 -706 707 0
418 -708 0
57 -708 0
-418 -57 708 0
-707 705 0
-708 705 0
707 708 -705 0
58 419 -710 0
-58 419 710 0
58 -419 710 0
-58 -419 -710 0
710 705 -296 0
-710 705 296 0
710 -705 296 0
-710 -705 -296 0
705 -711 0
710 -711 0
-705 -710 711 0
419 -712 0
58 -712 0
-419 -58 712 0
-711 709 0
-712 709 0
711 712 -709 0
59 420 -714 0
-59 420 714 0
59 -420 714 0
-59 -420 -714 0
714 709 -297 0
-714 709 297 0
714 -709 297 0
-714 -709 -297 0
709 -715 0
714 -715 0
-709 -714 715 0
420 -716 0
59 -716 0
-420 -59 716 0
-715 713 0
-716 713 0
715 716 -713 0
60 421 -718 0
-60 421 718 0
60 -421 718 0
-60 -421 -718 0
718 713 -298 0
-718 713 298 0
718 -713 298 0
-718 -713 -298 0
713 -719 0
718 -719 0
-713 -718 719 0
421 -720 0
60 -720 0
-421 -60 720 0
-719 717 0
-720 717 0
719 720 -717 0
61 422 -722 0
-61 422 722 0
61 -422 722 0
-61 -422 -722 0
722 717 -299 0
-722 717 299 0
722 -717 299 0
-722 -717 -299 0
717 -723 0
722 -723 0
-717 -722 723 0
422 -724 0
61 -724 0
-422 -61 724 0
-723 721 0
-724 721 0
723 724 -721 0
62 423 -726 0
-62 423 726 0
62 -423 726 0
-62 -423 -726 0
726 721 -300 0
-726 721 300 0
726 -721 300 0
-726 -721 -300 0
721 -727 0
726 -727 0
-721 -726 727 0
423 -728 0
62 -728 0
-423 -62 728 0
-727 725 0
-728 725 0
727 728 -725 0
63 424 -730 0
-63 424 730 0
63 -424 730 0
-63 -424 -730 0
730 725 -301 0
-730 725 301 0
730 -725 301 0
-730 -725 -301 0
725 -731 0
730 -731 0
-725 -730 731 0
424 -732 0
63 -732 0
-424 -63 732 0
-731 729 0
-732 729 0
731 732 -729 0
64 425 -734 0
-64 425 734 0
64 -425 734 0
-64 -425 -734 0
734 729 -302 0
-734 729 302 0
734 -729 302 0
-734 -729 -302 0
729 -735 0
734 -735 0
-729 -734 735 0
425 -736 0
64 -736 0
-425 -64 736 0
-735 733 0
-736 733 0
735 736 -733 0
65 426 -738 0
-65 426 738 0
65 -426 738 0
-65 -426 -738 0
738 733 -303 0
-738 733 303 0
738 -733 303 0
-738 -733 -303 0
733 -739 0
738 -739 0
-733 -738 739 0
426 -740 0
65 -740 0
-426 -65 740 0
-739 737 0
-740 737 0
739 740 -737 0
66 427 -742 0
-66 427 742 0
66 -427 742 0
-66 -427 -742 0
742 737 -304 0
-742 737 304 0
742 -737 304 0
-742 -737 -304 0
737 -743 0
742 -743 0
-737 -742 743 0
427 -744 0
66 -744 0
-427 -66 744 0
-743 741 0
-744 741 0
743 744 -741 0
67 428 -746 0
-67 428 746 0
67 -428 746 0
-67 -428 -746 0
746 741 -305 0
-746 741 305 0
746 -741 305 0
-746 -741 -305 0
741 -747 0
746 -747 0
-741 -746 747 0
428 -748 0
67 -748 0
-428 -67 748 0
-747 745 0
-748 745 0
747 748 -745 0
68 429 -750 0
-68 429 750 0
68 -429 750 0
-68 -429 -750 0
750 745 -306 0
-750 745 306 0
750 -745 306 0
-750 -745 -306 0
745 -751 0
750 -751 0
-745 -750 751 0
429 -752 0
68 -752 0
-429 -68 752 0
-751 749 0
-752 749 0
751 752 -749 0
69 430 -754 0
-69 430 754 0
69 -430 754 0
-69 -430 -754 0
754 749 -307 0
-754 749 307 0
754 -749 307 0
-754 -749 -307 0
749 -755 0
754 -755 0
-749 -754 755 0
430 -756 0
69 -756 0
-430 -69 756 0
-755 753 0
-756 753 0
755 756 -753 0
70 431 -758 0
-70 431 758 0
70 -431 758 0
-70 -431 -758 0
758 753 -308 0
-758 753 308 0
758 -753 308 0
-758 -753 -308 0
753 -759 0
758 -759 0
-753 -758 759 0
431 -760 0
70 -760 0
-431 -70 760 0
-759 757 0
-760 757 0
759 760 -757 0
71 432 -762 0
-71 432 762 0
71 -432 762 0
-71 -432 -762 0
762 757 -309 0
-762 757 309 0
762 -757 309 0
-762 -757 -309 0
757 -763 0
762 -763 0
-757 -762 763 0
432 -764 0
71 -764 0
-432 -71 764 0
-763 761 0
-764 761 0
763 764 -761 0
72 433 -766 0
-72 433 766 0
72 -433 766 0
-72 -433 -766 0
766 761 -310 0
-766 761 310 0
766 -761 310 0
-766 -761 -310 0
761 -767 0
766 -767 0
-761 -766 767 0
433 -768 0
72 -768 0
-433 -72 768 0
-767 765 0
-768 765 0
767 768 -765 0
73 434 -770 0
-73 434 770 0
73 -434 770 0
-73 -434 -770 0
770 765 -311 0
-770 765 311 0
770 -765 311 0
-770 -765 -311 0
765 -771 0
770 -771 0
-765 -770 771 0
434 -772 0
73 -772 0
-434 -73 772 0
-771 769 0
-772 769 0
771 772 -769 0
74 435 -774 0
-74 435 774 0
74 -435 774 0
-74 -435 -774 0
774 769 -312 0
-774 769 312 0
774 -769 312 0
-774 -769 -312 0
769 -775 0
774 -775 0
-769 -774 775 0
435 -776 0
74 -776 0
-435 -74 776 0
-775 773 0
-776 773 0
775 776 -773 0
75 436 -778 0
-75 436 778 0
75 -436 778 0
-75 -436 -778 0
778 773 -313 0
-778 773 313 0
778 -773 313 0
-778 -773 -313 0
773 -779 0
778 -779 0
-773 -778 779 0
436 -780 0
75 -780 0
-436 -75 780 0
-779 777 0
-780 777 0
779 780 -777 0
76 437 -782 0
-76 437 782 0
76 -437 782 0
-76 -437 -782 0
782 777 -314 0
-782 777 314 0
782 -777 314 0
-782 -777 -314 0
777 -783 0
782 -783 0
-777 -782 783 0
437 -784 0
76 -784 0
-437 -76 784 0
-783 781 0
-784 781 0
783 784 -781 0
77 438 -786 0
-77 438 786 0
77 -438 786 0
-77 -438 -786 0
786 781 -315 0
-786 781 315 0
786 -781 315 0
-786 -781 -315 0
781 -787 0
786 -787 0
-781 -786 787 0
438 -788 0
77 -788 0
-438 -77 788 0
-787 785 0
-788 785 0
787 788 -785 0
78 439 -790 0
-78 439 790 0
78 -439 790 0
-78 -439 -790 0
790 785 -316 0
-790 785 316 0
790 -785 316 0
-790 -785 -316 0
785 -791 0
790 -791 0
-785 -790 791 0
439 -792 0
78 -792 0
-439 -78 792 0
-791 789 0
-792 789 0
791 792 -789 0
79 440 -794 0
-79 440 794 0
79 -440 794 0
-79 -440 -794 0
794 789 -317 0
-794 789 317 0
794 -789 317 0
-794 -789 -317 0
789 -795 0
794 -795 0
-789 -794 795 0
440 -796 0
79 -796 0
-440 -79 796 0
-795 793 0
-796 793 0
795 796 -793 0
80 441 -798 0
-80 441 798 0
80 -441 798 0
-80 -441 -798 0
798 793 -318 0
-798 793 318 0
798 -793 318 0
-798 -793 -318 0
793 -799 0
798 -799 0
-793 -798 799 0
441 -800 0
80 -800 0
-441 -80 800 0
-799 797 0
-800 797 0
799 800 -797 0
81 442 -802 0
-81 442 802 0
81 -442 802 0
-81 -442 -802 0
802 797 -319 0
-802 797 319 0
802 -797 319 0
-802 -797 -319 0
797 -803 0
802 -803 0
-797 -802 803 0
442 -804 0
81 -804 0
-442 -81 804 0
-803 801 0
-804 801 0
803 804 -801 0
82 443 -806 0
-82 443 806 0
82 -443 806 0
-82 -443 -806 0
806 801 -320 0
-806 801 320 0
806 -801 320 0
-806 -801 -320 0
801 -807 0
806 -807 0
-801 -806 807 0
443 -808 0
82 -808 0
-443 -82 808 0
-807 805 0
-808 805 0
807 808 -805 0
83 444 -810 0
-83 444 810 0
83 -444 810 0
-83 -444 -810 0
810 805 -321 0
-810 805 321 0
810 -805 321 0
-810 -805 -321 0
805 -811 0
810 -811 0
-805 -810 811 0
444 -812 0
83 -812 0
-444 -83 812 0
-811 809 0
-812 809 0
811 812 -809 0
84 445 -814 0
-84 445 814 0
84 -445 814 0
-84 -445 -814 0
814 809 -322 0
-814 809 322 0
814 -809 322 0
-814 -809 -322 0
809 -815 0
814 -815 0
-809 -814 815 0
445 -816 0
84 -816 0
-445 -84 816 0
-815 813 0
-816 813 0
815 816 -813 0
85 446 -818 0
-85 446 818 0
85 -446 818 0
-85 -446 -818 0
818 813 -323 0
-818 813 323 0
818 -813 323 0
-818 -813 -323 0
813 -819 0
818 -819 0
-813 -818 819 0
446 -820 0
85 -820 0
-446 -85 820 0
-819 817 0
-820 817 0
819 820 -817 0
86 447 -822 0
-86 447 822 0
86 -447 822 0
-86 -447 -822 0
822 817 -324 0
-822 817 324 0
822 -817 324 0
-822 -817 -324 0
817 -823 0
822 -823 0
-817 -822 823 0
447 -824 0
86 -824 0
-447 -86 824 0
-823 821 0
-824 821 0
823 824 -821 0
87 448 -826 0
-87 448 826 0
87 -448 826 0
-87 -448 -826 0
826 821 -325 0
-826 821 325 0
826 -821 325 0
-826 -821 -325 0
821 -827 0
826 -827 0
-821 -826 827 0
448 -828 0
87 -828 0
-448 -87 828 0
-827 825 0
-828 825 0
827 828 -825 0
88 449 -830 0
-88 449 830 0
88 -449 830 0
-88 -449 -830 0
830 825 -326 0
-830 825 326 0
830 -825 326 0
-830 -825 -326 0
825 -831 0
830 -831 0
-825 -830 831 0
449 -832 0
88 -832 0
-449 -88 832 0
-831 829 0
-832 829 0
831 832 -829 0
89 450 -834 0
-89 450 834 0
89 -450 834 0
-89 -450 -834 0
834 829 -327 0
-834 829 327 0
834 -829 327 0
-834 -829 -327 0
829 -835 0
834 -835 0
-829 -834 835 0
450 -836 0
89 -836 0
-450 -89 836 0
-835 833 0
-836 833 0
835 836 -833 0
90 451 -838 0
-90 451 838 0
90 -451 838 0
-90 -451 -838 0
838 833 -328 0
-838 833 328 0
838 -833 328 0
-838 -833 -328 0
833 -839 0
838 -839 0
-833 -838 839 0
451 -840 0
90 -840 0
-451 -90 840 0
-839 837 0
-840 837 0
839 840 -837 0
91 452 -842 0
-91 452 842 0
91 -452 842 0
-91 -452 -842 0
842 837 -329 0
-842 837 329 0
842 -837 329 0
-842 -837 -329 0
837 -843 0
842 -843 0
-837 -842 843 0
452 -844 0
91 -844 0
-452 -91 844 0
-843 841 0
-844 841 0
843 844 -841 0
92 453 -846 0
-92 453 846 0
92 -453 846 0
-92 -453 -846 0
846 841 -330 0
-846 841 330 0
846 -841 330 0
-846 -841 -330 0
841 -847 0
846 -847 0
-841 -846 847 0
453 -848 0
92 -848 0
-453 -92 848 0
-847 845 0
-848 845 0
847 848 -845 0
93 454 -850 0
-93 454 850 0
93 -454 850 0
-93 -454 -850 0
850 845 -331 0
-850 845 331 0
850 -845 331 0
-850 -845 -331 0
845 -851 0
850 -851 0
-845 -850 851 0
454 -852 0
93 -852 0
-454 -93 852 0
-851 849 0
-852 849 0
851 852 -849 0
94 455 -854 0
-94 455 854 0
94 -455 854 0
-94 -455 -854 0
854 849 -332 0
-854 849 332 0
854 -849 332 0
-854 -849 -332 0
849 -855 0
854 -855 0
-849 -854 855 0
455 -856 0
94 -856 0
-455 -94 856 0
-855 853 0
-856 853 0
855 856 -853 0
95 456 -858 0
-95 456 858 0
95 -456 858 0
-95 -456 -858 0
858 853 -333 0
-858 853 333 0
858 -853 333 0
-858 -853 -333 0
853 -859 0
858 -859 0
-853 -858 859 0
456 -860 0
95 -860 0
-456 -95 860 0
-859 857 0
-860 857 0
859 860 -857 0
96 457 -862 0
-96 457 862 0
96 -457 862 0
-96 -457 -862 0
862 857 -334 0
-862 857 334 0
862 -857 334 0
-862 -857 -334 0
857 -863 0
862 -863 0
-857 -862 863 0
457 -864 0
96 -864 0
-457 -96 864 0
-863 861 0
-864 861 0
863 864 -861 0
97 458 -866 0
-97 458 866 0
97 -458 866 0
-97 -458 -866 0
866 861 -335 0
-866 861 335 0
866 -861 335 0
-866 -861 -335 0
861 -867 0
866 -867 0
-861 -866 867 0
458 -868 0
97 -868 0
-458 -97 868 0
-867 865 0
-868 865 0
867 868 -865 0
98 459 -870 0
-98 459 870 0
98 -459 870 0
-98 -459 -870 0
870 865 -336 0
-870 865 336 0
870 -865 336 0
-870 -865 -336 0
865 -871 0
870 -871 0
-865 -870 871 0
459 -872 0
98 -872 0
-459 -98 872 0
-871 869 0
-872 869 0
871 872 -869 0
99 460 -874 0
-99 460 874 0
99 -460 874 0
-99 -460 -874 0
874 869 -337 0
-874 869 337 0
874 -869 337 0
-874 -869 -337 0
869 -875 0
874 -875 0
-869 -874 875 0
460 -876 0
99 -876 0
-460 -99 876 0
-875 873 0
-876 873 0
875 876 -873 0
100 461 -878 0
-100 461 878 0
100 -461 878 0
-100 -461 -878 0
878 873 -338 0
-878 873 338 0
878 -873 338 0
-878 -873 -338 0
873 -879 0
878 -879 0
-873 -878 879 0
461 -880 0
100 -880 0
-461 -100 880 0
-879 877 0
-880 877 0
879 880 -877 0
101 462 -882 0
-101 462 882 0
101 -462 882 0
-101 -462 -882 0
882 877 -339 0
-882 877 339 0
882 -877 339 0
-882 -877 -339 0
877 -883 0
882 -883 0
-877 -882 883 0
462 -884 0
101 -884 0
-462 -101 884 0
-883 881 0
-884 881 0
883 884 -881 0
102 463 -886 0
-102 463 886 0
102 -463 886 0
-102 -463 -886 0
886 881 -340 0
-886 881 340 0
886 -881 340 0
-886 -881 -340 0
881 -887 0
886 -887 0
-881 -886 887 0
463 -888 0
102 -888 0
-463 -102 888 0
-887 885 0
-888 885 0
887 888 -885 0
103 464 -890 0
-103 464 890 0
103 -464 890 0
-103 -464 -890 0
890 885 -341 0
-890 885 341 0
890 -885 341 0
-890 -885 -341 0
885 -891 0
890 -891 0
-885 -890 891 0
464 -892 0
103 -892 0
-464 -103 892 0
-891 889 0
-892 889 0
891 892 -889 0
104 465 -894 0
-104 465 894 0
104 -465 894 0
-104 -465 -894 0
894 889 -342 0
-894 889 342 0
894 -889 342 0
-894 -889 -342 0
889 -895 0
894 -895 0
-889 -894 895 0
465 -896 0
104 -896 0
-465 -104 896 0
-895 893 0
-896 893 0
895 896 -893 0
105 466 -898 0
-105 466 898 0
105 -466 898 0
-105 -466 -898 0
898 893 -343 0
-898 893 343 0
898 -893 343 0
-898 -893 -343 0
893 -899 0
898 -899 0
-893 -898 899 0
466 -900 0
105 -900 0
-466 -105 900 0
-899 897 0
-900 897 0
899 900 -897 0
106 467 -902 0
-106 467 902 0
106 -467 902 0
-106 -467 -902 0
902 897 -344 0
-902 897 344 0
902 -897 344 0
-902 -897 -344 0
897 -903 0
902 -903 0
-897 -902 903 0
467 -904 0
106 -904 0
-467 -106 904 0
-903 901 0
-904 901 0
903 904 -901 0
107 468 -906 0
-107 468 906 0
107 -468 906 0
-107 -468 -906 0
906 901 -345 0
-906 901 345 0
906 -901 345 0
-906 -901 -345 0
901 -907 0
906 -907 0
-901 -906 907 0
468 -908 0
107 -908 0
-468 -107 908 0
-907 905 0
-908 905 0
907 908 -905 0
108 469 -910 0
-108 469 910 0
108 -469 910 0
-108 -469 -910 0
910 905 -346 0
-910 905 346 0
910 -905 346 0
-910 -905 -346 0
905 -911 0
910 -911 0
-905 -910 911 0
469 -912 0
108 -912 0
-469 -108 912 0
-911 909 0
-912 909 0
911 912 -909 0
109 470 -914 0
-109 470 914 0
109 -470 914 0
-109 -470 -914 0
914 909 -347 0
-914 909 347 0
914 -909 347 0
-914 -909 -347 0
909 -915 0
914 -915 0
-909 -914 915 0
470 -916 0
109 -916 0
-470 -109 916 0
-915 913 0
-916 913 0
915 916 -913 0
110 471 -918 0
-110 471 918 0
110 -471 918 0
-110 -471 -918 0
918 913 -348 0
-918 913 348 0
918 -913 348 0
-918 -913 -348 0
913 -919 0
918 -919 0
-913 -918 919 0
471 -920 0
110 -920 0
-471 -110 920 0
-919 917 0
-920 917 0
919 920 -917 0
111 472 -922 0
-111 472 922 0
111 -472 922 0
-111 -472 -922 0
922 917 -349 0
-922 917 349 0
922 -917 349 0
-922 -917 -349 0
917 -923 0
922 -923 0
-917 -922 923 0
472 -924 0
111 -924 0
-472 -111 924 0
-923 921 0
-924 921 0
923 924 -921 0
112 473 -926 0
-112 473 926 0
112 -473 926 0
-112 -473 -926 0
926 921 -350 0
-926 921 350 0
926 -921 350 0
-926 -921 -350 0
921 -927 0
926 -927 0
-921 -926 927 0
473 -928 0
112 -928 0
-473 -112 928 0
-927 925 0
-928 925 0
927 928 -925 0
113 474 -930 0
-113 474 930 0
113 -474 930 0
-113 -474 -930 0
930 925 -351 0
-930 925 351 0
930 -925 351 0
-930 -925 -351 0
925 -931 0
930 -931 0
-925 -930 931 0
474 -932 0
113 -932 0
-474 -113 932 0
-931 929 0
-932 929 0
931 932 -929 0
114 475 -934 0
-114 475 934 0
114 -475 934 0
-114 -475 -934 0
934 929 -352 0
-934 929 352 0
934 -929 352 0
-934 -929 -352 0
929 -935 0
934 -935 0
-929 -934 935 0
475 -936 0
114 -936 0
-475 -114 936 0
-935 933 0
-936 933 0
935 936 -933 0
115 476 -938 0
-115 476 938 0
115 -476 938 0
-115 -476 -938 0
938 933 -353 0
-938 933 353 0
938 -933 353 0
-938 -933 -353 0
933 -939 0
938 -939 0
-933 -938 939 0
476 -940 0
115 -940 0
-476 -115 940 0
-939 937 0
-940 937 0
939 940 -937 0
116 477 -942 0
-116 477 942 0
116 -477 942 0
-116 -477 -942 0
942 937 -354 0
-942 937 354 0
942 -937 354 0
-942 -937 -354 0
937 -943 0
942 -943 0
-937 -942 943 0
477 -944 0
116 -944 0
-477 -116 944 0
-943 941 0
-944 941 0
943 944 -941 0
117 478 -946 0
-117 478 946 0
117 -478 946 0
-117 -478 -946 0
946 941 -355 0
-946 941 355 0
946 -941 355 0
-946 -941 -355 0
941 -947 0
946 -947 0
-941 -946 947 0
478 -948 0
117 -948 0
-478 -117 948 0
-947 945 0
-948 945 0
947 948 -945 0
118 479 -950 0
-118 479 950 0
118 -479 950 0
-118 -479 -950 0
950 945 -356 0
-950 945 356 0
950 -945 356 0
-950 -945 -356 0
945 -951 0
950 -951 0
-945 -950 951 0
479 -952 0
118 -952 0
-479 -118 952 0
-951 949 0
-952 949 0
951 952 -949 0
119 480 -954 0
-119 480 954 0
119 -480 954 0
-119 -480 -954 0
954 949 -357 0
-954 949 357 0
954 -949 357 0
-954 -949 -357 0
949 -955 0
954 -955 0
-949 -954 955 0
480 -956 0
119 -956 0
-480 -119 956 0
-955 953 0
-956 953 0
955 956 -953 0
953 359 -358 0
-953 359 358 0
953 -359 358 0
-953 -359 -358 0
